30	100	100	100
28	54	94
33	35	7
34	36	44
89	62	61
5	87	32
94	4	33
83	66	70
21	62	48
67	60	31
15	74	80
71	76	66
59	96	68
93	68	10
25	66	88
64	48	76
24	51	42
24	92	91
24	57	48
47	4	56
13	2	84
74	29	8
15	14	5
98	45	66
25	82	8
81	95	39
87	33	81
93	37	4
40	73	40
14	16	43
37	96	90
